% HORIZON TEMPOREL
nr_weeks=12;
nr_days_per_week=0;
nr_slots_per_day=0;

% DECOMPTE DES ELEMENTS PRINCIPAUX
nr_equipments=0;
nr_rooms=5;
nr_teachers=2;
nr_groups=4;
nr_courses=1;
nr_parts=3;
nr_classes=5;
nr_constraints=10;
nr_labels=13;

% DECOMPTE DES SOUS-ELEMENTS
nr_part_equipments=0;
nr_part_rooms=8;
nr_part_teachers=3;
nr_scopes=14;
nr_filters=15;
nr_parameters=3;
nr_part_room_mandatory=0;
nr_part_sessions_teacher=2;

% DIMENSIONS
max_session_rank=12;
max_equipment_count=0;
max_room_capacity=286;
max_group_size=22;
max_part_equipment_count=0;
max_part_room_class_bound=0;
max_part_teacher_class_bound=0;
max_element_parameter=1;

% RELATIONS ENTRE CLASSES D'ELEMENTS (STRUCTURELLES/ASSOCIATIVES)
course_parts=[{1,2,3}];
part_classes=[{1},{2,3,4},{5}];
part_equipments=[{},{},{}];
part_rooms=[{1,2},{3,4,5},{3,4,5}];
part_teachers=[{1},{1,2},{}];
class_groups=[{1,2,3,4},{1},{3,4},{2},{1,2,3,4}];
constraint_scopes=[{1},{2},{3},{4},{5},{6,7},{8,9},{10},{11},{12,13,14}];
scope_filters=[{1},{2},{3},{4},{5},{6},{7},{8},{9},{10,11},{12},{13},{14},{15}];
constraint_function=[sequenced,weekly,weekly,same_week,same_slots,sequenced,sequenced,same_rooms,same_teachers,teacher_repartition];
function_parameters=[{},{},{},{},{},{},{},{},{},{1,2,3}];
room_label=[{1},{1},{2},{2},{2}];
teacher_label=[{3},{3}];
group_label=[{4,5,6},{4,5,7},{4,8,9},{4,8,9}];
course_label=[{4,10}];
part_label=[{11},{12},{13}];

% ATTRIBUTS DES CLASSES D'ELEMENTS
equipment_name=[];
equipment_count=[];
room_name=["AMPHI-A","AMPHI-B","H001","H002","H003"];
room_capacity=[90,286,20,42,38];
teacher_name=["LESAINT David","JAMIN Antoine"];
group_name=["1-td1-tp1-pq","2-td1-tp3-ps","3-td2-tp2-is","4-td2-tp2-qs"];
group_size=[18,22,10,17];
course_name=["Développement-Web"];
part_name=["Développement-Web-CM","Développement-Web-TP","Développement-Web-PR"];
class_name=["Développement-Web-CM1","Développement-Web-TP1","Développement-Web-TP2","Développement-Web-TP3","Développement-Web-PR1"];
label_name=["BATIMENT-A","BATIMENT-H","DEPARTEMENT-INFORMATIQUE","L3-INFORMATIQUE","TD1","TP1","TP3","TD2","TP2","UE","CM","TP","PR"];
part_nr_sessions=[12,8,8];
part_length=[1,2,3];
part_equipment_count=[];
part_room_use=[single,single,multiple];
part_room_mandatory=array2d(1..nr_part_room_mandatory,1..2,[]);
parameter_name=["class1","class2","class3"];
parameter_type=["teacher","teacher","teacher"];
parameter_value=array2d(1..nr_parameters,1..max_element_parameter,[utt_single,utt_single,utt_halfhalf]);
part_sessions_teacher=[1,1];
part_teacher_sessions_count=[12,12,12];
scope_clustering=[utt_class,utt_class,utt_class,utt_part,utt_part,utt_session,utt_session,utt_session,utt_session,utt_class,utt_class,utt_session,utt_session,utt_session];
scope_mask=array2d(1..nr_scopes,1..max_session_rank,[0,0,0,0,0,0,0,0,0,0,0,0,1,4,5,6,7,8,9,10,11,12,0,0,0,0,0,0,0,0,0,0,0,0,0,0,1,0,0,0,0,0,0,0,0,0,0,0,5,0,0,0,0,0,0,0,0,0,0,0,1,0,0,0,0,0,0,0,0,0,0,0,1,0,0,0,0,0,0,0,0,0,0,0,3,0,0,0,0,0,0,0,0,0,0,0,1,0,0,0,0,0,0,0,0,0,0,0,0,0,0,0,0,0,0,0,0,0,0,0,0,0,0,0,0,0,0,0,0,0,0,0,0,0,0,0,0,0,0,0,0,0,0,0,0,0,0,0,0,0,0,0,0,0,0,0,0,0,0,0,0,0,0,0,0,0,0,0]);
filter_type=[utt_course,utt_part,utt_part,utt_part,utt_part,utt_part,utt_part,utt_part,utt_part,utt_course,utt_part,utt_part,utt_class,utt_class,utt_class];
filter_elements=[{1},{1},{2,3},{2},{2},{1},{3},{1},{2},{1},{1,2},{2,2,3},{2},{3},{4}];
function_type=[utt_hard,utt_hard,utt_hard,utt_hard,utt_hard,utt_hard,utt_hard,utt_hard,utt_hard,utt_hard];
